; solver scope 0
(declare-const tmp (_ BitVec 16))
(declare-const tmp_0 (_ BitVec 16))
(declare-const tmp_1 (_ BitVec 16))
(assert (let ((tmp_2 ((_ extract 0 0) tmp)))
        (let ((tmp_3 ((_ extract 0 0) tmp_0)))
        (let ((tmp_4 ((_ extract 0 0) tmp_1)))
        (let ((tmp_5 (bvand tmp_4 tmp_3)))
        (let ((tmp_6 (bvxor tmp_5 #b1)))
        (let ((tmp_7 (bvxor tmp_3 #b1)))
        (let ((tmp_8 (bvxor tmp_4 #b1)))
        (let ((tmp_9 (bvand tmp_8 tmp_7)))
        (let ((tmp_10 (bvxor tmp_9 #b1)))
        (let ((tmp_11 (bvand tmp_10 tmp_6)))
        (let ((tmp_12 (bvand tmp_11 tmp_2)))
        (let ((tmp_13 (bvxor tmp_12 #b1)))
        (let ((tmp_14 (bvxor tmp_2 #b1)))
        (let ((tmp_15 (bvxor tmp_11 #b1)))
        (let ((tmp_16 (bvand tmp_15 tmp_14)))
        (let ((tmp_17 (bvxor tmp_16 #b1)))
        (let ((tmp_18 (bvand tmp_17 tmp_13)))
        (let ((tmp_19 ((_ extract 1 1) tmp)))
        (let ((tmp_20 ((_ extract 1 1) tmp_0)))
        (let ((tmp_21 ((_ extract 1 1) tmp_1)))
        (let ((tmp_22 (bvand tmp_21 tmp_20)))
        (let ((tmp_23 (bvxor tmp_22 #b1)))
        (let ((tmp_24 (bvxor tmp_20 #b1)))
        (let ((tmp_25 (bvxor tmp_21 #b1)))
        (let ((tmp_26 (bvand tmp_25 tmp_24)))
        (let ((tmp_27 (bvxor tmp_26 #b1)))
        (let ((tmp_28 (bvand tmp_27 tmp_23)))
        (let ((tmp_29 (bvand tmp_28 tmp_19)))
        (let ((tmp_30 (bvxor tmp_29 #b1)))
        (let ((tmp_31 (bvxor tmp_19 #b1)))
        (let ((tmp_32 (bvxor tmp_28 #b1)))
        (let ((tmp_33 (bvand tmp_32 tmp_31)))
        (let ((tmp_34 (bvxor tmp_33 #b1)))
        (let ((tmp_35 (bvand tmp_34 tmp_30)))
        (let ((tmp_36 (bvand tmp_6 tmp_13)))
        (let ((tmp_37 (bvxor tmp_36 #b1)))
        (let ((tmp_38 (bvand tmp_37 tmp_35)))
        (let ((tmp_39 (bvxor tmp_38 #b1)))
        (let ((tmp_40 (bvxor tmp_35 #b1)))
        (let ((tmp_41 (bvand tmp_36 tmp_40)))
        (let ((tmp_42 (bvxor tmp_41 #b1)))
        (let ((tmp_43 (bvand tmp_42 tmp_39)))
        (let ((tmp_44 ((_ extract 2 2) tmp)))
        (let ((tmp_45 ((_ extract 2 2) tmp_0)))
        (let ((tmp_46 ((_ extract 2 2) tmp_1)))
        (let ((tmp_47 (bvand tmp_46 tmp_45)))
        (let ((tmp_48 (bvxor tmp_47 #b1)))
        (let ((tmp_49 (bvxor tmp_45 #b1)))
        (let ((tmp_50 (bvxor tmp_46 #b1)))
        (let ((tmp_51 (bvand tmp_50 tmp_49)))
        (let ((tmp_52 (bvxor tmp_51 #b1)))
        (let ((tmp_53 (bvand tmp_52 tmp_48)))
        (let ((tmp_54 (bvand tmp_53 tmp_44)))
        (let ((tmp_55 (bvxor tmp_54 #b1)))
        (let ((tmp_56 (bvxor tmp_44 #b1)))
        (let ((tmp_57 (bvxor tmp_53 #b1)))
        (let ((tmp_58 (bvand tmp_57 tmp_56)))
        (let ((tmp_59 (bvxor tmp_58 #b1)))
        (let ((tmp_60 (bvand tmp_59 tmp_55)))
        (let ((tmp_61 (bvand tmp_23 tmp_30)))
        (let ((tmp_62 (bvxor tmp_61 #b1)))
        (let ((tmp_63 (bvand tmp_62 tmp_60)))
        (let ((tmp_64 (bvxor tmp_63 #b1)))
        (let ((tmp_65 (bvxor tmp_60 #b1)))
        (let ((tmp_66 (bvand tmp_61 tmp_65)))
        (let ((tmp_67 (bvxor tmp_66 #b1)))
        (let ((tmp_68 (bvand tmp_67 tmp_64)))
        (let ((tmp_69 (bvxor tmp_68 #b1)))
        (let ((tmp_70 (bvand tmp_39 tmp_69)))
        (let ((tmp_71 (bvxor tmp_70 #b1)))
        (let ((tmp_72 (bvand tmp_38 tmp_68)))
        (let ((tmp_73 (bvxor tmp_72 #b1)))
        (let ((tmp_74 (bvand tmp_73 tmp_71)))
        (let ((tmp_75 (bvand tmp_64 tmp_73)))
        (let ((tmp_76 (bvxor tmp_75 #b1)))
        (let ((tmp_77 ((_ extract 3 3) tmp)))
        (let ((tmp_78 ((_ extract 3 3) tmp_0)))
        (let ((tmp_79 ((_ extract 3 3) tmp_1)))
        (let ((tmp_80 (bvand tmp_79 tmp_78)))
        (let ((tmp_81 (bvxor tmp_80 #b1)))
        (let ((tmp_82 (bvxor tmp_78 #b1)))
        (let ((tmp_83 (bvxor tmp_79 #b1)))
        (let ((tmp_84 (bvand tmp_83 tmp_82)))
        (let ((tmp_85 (bvxor tmp_84 #b1)))
        (let ((tmp_86 (bvand tmp_85 tmp_81)))
        (let ((tmp_87 (bvand tmp_86 tmp_77)))
        (let ((tmp_88 (bvxor tmp_87 #b1)))
        (let ((tmp_89 (bvxor tmp_77 #b1)))
        (let ((tmp_90 (bvxor tmp_86 #b1)))
        (let ((tmp_91 (bvand tmp_90 tmp_89)))
        (let ((tmp_92 (bvxor tmp_91 #b1)))
        (let ((tmp_93 (bvand tmp_92 tmp_88)))
        (let ((tmp_94 (bvand tmp_48 tmp_55)))
        (let ((tmp_95 (bvxor tmp_94 #b1)))
        (let ((tmp_96 (bvand tmp_95 tmp_93)))
        (let ((tmp_97 (bvxor tmp_96 #b1)))
        (let ((tmp_98 (bvxor tmp_93 #b1)))
        (let ((tmp_99 (bvand tmp_94 tmp_98)))
        (let ((tmp_100 (bvxor tmp_99 #b1)))
        (let ((tmp_101 (bvand tmp_100 tmp_97)))
        (let ((tmp_102 (bvand tmp_101 tmp_76)))
        (let ((tmp_103 (bvxor tmp_102 #b1)))
        (let ((tmp_104 (bvxor tmp_101 #b1)))
        (let ((tmp_105 (bvand tmp_104 tmp_75)))
        (let ((tmp_106 (bvxor tmp_105 #b1)))
        (let ((tmp_107 (bvand tmp_106 tmp_103)))
        (let ((tmp_108 (bvand tmp_63 tmp_101)))
        (let ((tmp_109 (bvxor tmp_108 #b1)))
        (let ((tmp_110 (bvand tmp_97 tmp_109)))
        (let ((tmp_111 (bvand tmp_101 tmp_72)))
        (let ((tmp_112 (bvxor tmp_111 #b1)))
        (let ((tmp_113 (bvand tmp_112 tmp_110)))
        (let ((tmp_114 ((_ extract 4 4) tmp)))
        (let ((tmp_115 ((_ extract 4 4) tmp_0)))
        (let ((tmp_116 ((_ extract 4 4) tmp_1)))
        (let ((tmp_117 (bvand tmp_116 tmp_115)))
        (let ((tmp_118 (bvxor tmp_117 #b1)))
        (let ((tmp_119 (bvxor tmp_115 #b1)))
        (let ((tmp_120 (bvxor tmp_116 #b1)))
        (let ((tmp_121 (bvand tmp_120 tmp_119)))
        (let ((tmp_122 (bvxor tmp_121 #b1)))
        (let ((tmp_123 (bvand tmp_122 tmp_118)))
        (let ((tmp_124 (bvand tmp_123 tmp_114)))
        (let ((tmp_125 (bvxor tmp_124 #b1)))
        (let ((tmp_126 (bvxor tmp_114 #b1)))
        (let ((tmp_127 (bvxor tmp_123 #b1)))
        (let ((tmp_128 (bvand tmp_127 tmp_126)))
        (let ((tmp_129 (bvxor tmp_128 #b1)))
        (let ((tmp_130 (bvand tmp_129 tmp_125)))
        (let ((tmp_131 (bvand tmp_81 tmp_88)))
        (let ((tmp_132 (bvxor tmp_131 #b1)))
        (let ((tmp_133 (bvand tmp_132 tmp_130)))
        (let ((tmp_134 (bvxor tmp_133 #b1)))
        (let ((tmp_135 (bvxor tmp_130 #b1)))
        (let ((tmp_136 (bvand tmp_131 tmp_135)))
        (let ((tmp_137 (bvxor tmp_136 #b1)))
        (let ((tmp_138 (bvand tmp_137 tmp_134)))
        (let ((tmp_139 (bvxor tmp_138 #b1)))
        (let ((tmp_140 (bvand tmp_139 tmp_113)))
        (let ((tmp_141 (bvxor tmp_140 #b1)))
        (let ((tmp_142 (bvxor tmp_113 #b1)))
        (let ((tmp_143 (bvand tmp_138 tmp_142)))
        (let ((tmp_144 (bvxor tmp_143 #b1)))
        (let ((tmp_145 (bvand tmp_144 tmp_141)))
        (let ((tmp_146 (bvand tmp_134 tmp_144)))
        (let ((tmp_147 (bvxor tmp_146 #b1)))
        (let ((tmp_148 ((_ extract 5 5) tmp)))
        (let ((tmp_149 ((_ extract 5 5) tmp_0)))
        (let ((tmp_150 ((_ extract 5 5) tmp_1)))
        (let ((tmp_151 (bvand tmp_150 tmp_149)))
        (let ((tmp_152 (bvxor tmp_151 #b1)))
        (let ((tmp_153 (bvxor tmp_149 #b1)))
        (let ((tmp_154 (bvxor tmp_150 #b1)))
        (let ((tmp_155 (bvand tmp_154 tmp_153)))
        (let ((tmp_156 (bvxor tmp_155 #b1)))
        (let ((tmp_157 (bvand tmp_156 tmp_152)))
        (let ((tmp_158 (bvand tmp_157 tmp_148)))
        (let ((tmp_159 (bvxor tmp_158 #b1)))
        (let ((tmp_160 (bvxor tmp_148 #b1)))
        (let ((tmp_161 (bvxor tmp_157 #b1)))
        (let ((tmp_162 (bvand tmp_161 tmp_160)))
        (let ((tmp_163 (bvxor tmp_162 #b1)))
        (let ((tmp_164 (bvand tmp_163 tmp_159)))
        (let ((tmp_165 (bvand tmp_118 tmp_125)))
        (let ((tmp_166 (bvxor tmp_165 #b1)))
        (let ((tmp_167 (bvand tmp_166 tmp_164)))
        (let ((tmp_168 (bvxor tmp_167 #b1)))
        (let ((tmp_169 (bvxor tmp_164 #b1)))
        (let ((tmp_170 (bvand tmp_165 tmp_169)))
        (let ((tmp_171 (bvxor tmp_170 #b1)))
        (let ((tmp_172 (bvand tmp_171 tmp_168)))
        (let ((tmp_173 (bvand tmp_172 tmp_147)))
        (let ((tmp_174 (bvxor tmp_173 #b1)))
        (let ((tmp_175 (bvxor tmp_172 #b1)))
        (let ((tmp_176 (bvand tmp_175 tmp_146)))
        (let ((tmp_177 (bvxor tmp_176 #b1)))
        (let ((tmp_178 (bvand tmp_177 tmp_174)))
        (let ((tmp_179 (bvand tmp_138 tmp_172)))
        (let ((tmp_180 (bvand tmp_179 tmp_142)))
        (let ((tmp_181 (bvxor tmp_180 #b1)))
        (let ((tmp_182 (bvand tmp_133 tmp_172)))
        (let ((tmp_183 (bvxor tmp_182 #b1)))
        (let ((tmp_184 (bvand tmp_168 tmp_183)))
        (let ((tmp_185 (bvand tmp_184 tmp_181)))
        (let ((tmp_186 (bvxor tmp_185 #b1)))
        (let ((tmp_187 ((_ extract 6 6) tmp)))
        (let ((tmp_188 ((_ extract 6 6) tmp_0)))
        (let ((tmp_189 ((_ extract 6 6) tmp_1)))
        (let ((tmp_190 (bvand tmp_189 tmp_188)))
        (let ((tmp_191 (bvxor tmp_190 #b1)))
        (let ((tmp_192 (bvxor tmp_188 #b1)))
        (let ((tmp_193 (bvxor tmp_189 #b1)))
        (let ((tmp_194 (bvand tmp_193 tmp_192)))
        (let ((tmp_195 (bvxor tmp_194 #b1)))
        (let ((tmp_196 (bvand tmp_195 tmp_191)))
        (let ((tmp_197 (bvand tmp_196 tmp_187)))
        (let ((tmp_198 (bvxor tmp_197 #b1)))
        (let ((tmp_199 (bvxor tmp_187 #b1)))
        (let ((tmp_200 (bvxor tmp_196 #b1)))
        (let ((tmp_201 (bvand tmp_200 tmp_199)))
        (let ((tmp_202 (bvxor tmp_201 #b1)))
        (let ((tmp_203 (bvand tmp_202 tmp_198)))
        (let ((tmp_204 (bvand tmp_152 tmp_159)))
        (let ((tmp_205 (bvxor tmp_204 #b1)))
        (let ((tmp_206 (bvand tmp_205 tmp_203)))
        (let ((tmp_207 (bvxor tmp_206 #b1)))
        (let ((tmp_208 (bvxor tmp_203 #b1)))
        (let ((tmp_209 (bvand tmp_204 tmp_208)))
        (let ((tmp_210 (bvxor tmp_209 #b1)))
        (let ((tmp_211 (bvand tmp_210 tmp_207)))
        (let ((tmp_212 (bvand tmp_211 tmp_186)))
        (let ((tmp_213 (bvxor tmp_212 #b1)))
        (let ((tmp_214 (bvxor tmp_211 #b1)))
        (let ((tmp_215 (bvand tmp_214 tmp_185)))
        (let ((tmp_216 (bvxor tmp_215 #b1)))
        (let ((tmp_217 (bvand tmp_216 tmp_213)))
        (let ((tmp_218 (bvxor tmp_184 #b1)))
        (let ((tmp_219 (bvand tmp_211 tmp_218)))
        (let ((tmp_220 (bvxor tmp_219 #b1)))
        (let ((tmp_221 (bvand tmp_207 tmp_220)))
        (let ((tmp_222 (bvand tmp_211 tmp_179)))
        (let ((tmp_223 (bvand tmp_142 tmp_222)))
        (let ((tmp_224 (bvxor tmp_223 #b1)))
        (let ((tmp_225 (bvand tmp_224 tmp_221)))
        (let ((tmp_226 (bvxor tmp_225 #b1)))
        (let ((tmp_227 ((_ extract 7 7) tmp)))
        (let ((tmp_228 ((_ extract 7 7) tmp_0)))
        (let ((tmp_229 ((_ extract 7 7) tmp_1)))
        (let ((tmp_230 (bvand tmp_229 tmp_228)))
        (let ((tmp_231 (bvxor tmp_230 #b1)))
        (let ((tmp_232 (bvxor tmp_228 #b1)))
        (let ((tmp_233 (bvxor tmp_229 #b1)))
        (let ((tmp_234 (bvand tmp_233 tmp_232)))
        (let ((tmp_235 (bvxor tmp_234 #b1)))
        (let ((tmp_236 (bvand tmp_235 tmp_231)))
        (let ((tmp_237 (bvand tmp_236 tmp_227)))
        (let ((tmp_238 (bvxor tmp_237 #b1)))
        (let ((tmp_239 (bvxor tmp_227 #b1)))
        (let ((tmp_240 (bvxor tmp_236 #b1)))
        (let ((tmp_241 (bvand tmp_240 tmp_239)))
        (let ((tmp_242 (bvxor tmp_241 #b1)))
        (let ((tmp_243 (bvand tmp_242 tmp_238)))
        (let ((tmp_244 (bvand tmp_191 tmp_198)))
        (let ((tmp_245 (bvxor tmp_244 #b1)))
        (let ((tmp_246 (bvand tmp_245 tmp_243)))
        (let ((tmp_247 (bvxor tmp_246 #b1)))
        (let ((tmp_248 (bvxor tmp_243 #b1)))
        (let ((tmp_249 (bvand tmp_244 tmp_248)))
        (let ((tmp_250 (bvxor tmp_249 #b1)))
        (let ((tmp_251 (bvand tmp_250 tmp_247)))
        (let ((tmp_252 (bvand tmp_251 tmp_226)))
        (let ((tmp_253 (bvxor tmp_252 #b1)))
        (let ((tmp_254 (bvxor tmp_251 #b1)))
        (let ((tmp_255 (bvand tmp_254 tmp_225)))
        (let ((tmp_256 (bvxor tmp_255 #b1)))
        (let ((tmp_257 (bvand tmp_256 tmp_253)))
        (let ((tmp_258 (bvand tmp_206 tmp_251)))
        (let ((tmp_259 (bvxor tmp_258 #b1)))
        (let ((tmp_260 (bvand tmp_247 tmp_259)))
        (let ((tmp_261 (bvand tmp_211 tmp_251)))
        (let ((tmp_262 (bvand tmp_218 tmp_261)))
        (let ((tmp_263 (bvxor tmp_262 #b1)))
        (let ((tmp_264 (bvand tmp_263 tmp_260)))
        (let ((tmp_265 (bvand tmp_179 tmp_261)))
        (let ((tmp_266 (bvand tmp_142 tmp_265)))
        (let ((tmp_267 (bvxor tmp_266 #b1)))
        (let ((tmp_268 (bvand tmp_267 tmp_264)))
        (let ((tmp_269 ((_ extract 8 8) tmp)))
        (let ((tmp_270 ((_ extract 8 8) tmp_0)))
        (let ((tmp_271 ((_ extract 8 8) tmp_1)))
        (let ((tmp_272 (bvand tmp_271 tmp_270)))
        (let ((tmp_273 (bvxor tmp_272 #b1)))
        (let ((tmp_274 (bvxor tmp_270 #b1)))
        (let ((tmp_275 (bvxor tmp_271 #b1)))
        (let ((tmp_276 (bvand tmp_275 tmp_274)))
        (let ((tmp_277 (bvxor tmp_276 #b1)))
        (let ((tmp_278 (bvand tmp_277 tmp_273)))
        (let ((tmp_279 (bvand tmp_278 tmp_269)))
        (let ((tmp_280 (bvxor tmp_279 #b1)))
        (let ((tmp_281 (bvxor tmp_269 #b1)))
        (let ((tmp_282 (bvxor tmp_278 #b1)))
        (let ((tmp_283 (bvand tmp_282 tmp_281)))
        (let ((tmp_284 (bvxor tmp_283 #b1)))
        (let ((tmp_285 (bvand tmp_284 tmp_280)))
        (let ((tmp_286 (bvand tmp_231 tmp_238)))
        (let ((tmp_287 (bvxor tmp_286 #b1)))
        (let ((tmp_288 (bvand tmp_287 tmp_285)))
        (let ((tmp_289 (bvxor tmp_288 #b1)))
        (let ((tmp_290 (bvxor tmp_285 #b1)))
        (let ((tmp_291 (bvand tmp_286 tmp_290)))
        (let ((tmp_292 (bvxor tmp_291 #b1)))
        (let ((tmp_293 (bvand tmp_292 tmp_289)))
        (let ((tmp_294 (bvxor tmp_293 #b1)))
        (let ((tmp_295 (bvand tmp_294 tmp_268)))
        (let ((tmp_296 (bvxor tmp_295 #b1)))
        (let ((tmp_297 (bvxor tmp_268 #b1)))
        (let ((tmp_298 (bvand tmp_293 tmp_297)))
        (let ((tmp_299 (bvxor tmp_298 #b1)))
        (let ((tmp_300 (bvand tmp_299 tmp_296)))
        (let ((tmp_301 (bvand tmp_289 tmp_299)))
        (let ((tmp_302 (bvxor tmp_301 #b1)))
        (let ((tmp_303 ((_ extract 9 9) tmp)))
        (let ((tmp_304 ((_ extract 9 9) tmp_0)))
        (let ((tmp_305 ((_ extract 9 9) tmp_1)))
        (let ((tmp_306 (bvand tmp_305 tmp_304)))
        (let ((tmp_307 (bvxor tmp_306 #b1)))
        (let ((tmp_308 (bvxor tmp_304 #b1)))
        (let ((tmp_309 (bvxor tmp_305 #b1)))
        (let ((tmp_310 (bvand tmp_309 tmp_308)))
        (let ((tmp_311 (bvxor tmp_310 #b1)))
        (let ((tmp_312 (bvand tmp_311 tmp_307)))
        (let ((tmp_313 (bvand tmp_312 tmp_303)))
        (let ((tmp_314 (bvxor tmp_313 #b1)))
        (let ((tmp_315 (bvxor tmp_303 #b1)))
        (let ((tmp_316 (bvxor tmp_312 #b1)))
        (let ((tmp_317 (bvand tmp_316 tmp_315)))
        (let ((tmp_318 (bvxor tmp_317 #b1)))
        (let ((tmp_319 (bvand tmp_318 tmp_314)))
        (let ((tmp_320 (bvand tmp_273 tmp_280)))
        (let ((tmp_321 (bvxor tmp_320 #b1)))
        (let ((tmp_322 (bvand tmp_321 tmp_319)))
        (let ((tmp_323 (bvxor tmp_322 #b1)))
        (let ((tmp_324 (bvxor tmp_319 #b1)))
        (let ((tmp_325 (bvand tmp_320 tmp_324)))
        (let ((tmp_326 (bvxor tmp_325 #b1)))
        (let ((tmp_327 (bvand tmp_326 tmp_323)))
        (let ((tmp_328 (bvand tmp_327 tmp_302)))
        (let ((tmp_329 (bvxor tmp_328 #b1)))
        (let ((tmp_330 (bvxor tmp_327 #b1)))
        (let ((tmp_331 (bvand tmp_330 tmp_301)))
        (let ((tmp_332 (bvxor tmp_331 #b1)))
        (let ((tmp_333 (bvand tmp_332 tmp_329)))
        (let ((tmp_334 (bvand tmp_293 tmp_327)))
        (let ((tmp_335 (bvand tmp_334 tmp_297)))
        (let ((tmp_336 (bvxor tmp_335 #b1)))
        (let ((tmp_337 (bvand tmp_288 tmp_327)))
        (let ((tmp_338 (bvxor tmp_337 #b1)))
        (let ((tmp_339 (bvand tmp_323 tmp_338)))
        (let ((tmp_340 (bvand tmp_339 tmp_336)))
        (let ((tmp_341 (bvxor tmp_340 #b1)))
        (let ((tmp_342 ((_ extract 10 10) tmp)))
        (let ((tmp_343 ((_ extract 10 10) tmp_0)))
        (let ((tmp_344 ((_ extract 10 10) tmp_1)))
        (let ((tmp_345 (bvand tmp_344 tmp_343)))
        (let ((tmp_346 (bvxor tmp_345 #b1)))
        (let ((tmp_347 (bvxor tmp_343 #b1)))
        (let ((tmp_348 (bvxor tmp_344 #b1)))
        (let ((tmp_349 (bvand tmp_348 tmp_347)))
        (let ((tmp_350 (bvxor tmp_349 #b1)))
        (let ((tmp_351 (bvand tmp_350 tmp_346)))
        (let ((tmp_352 (bvand tmp_351 tmp_342)))
        (let ((tmp_353 (bvxor tmp_352 #b1)))
        (let ((tmp_354 (bvxor tmp_342 #b1)))
        (let ((tmp_355 (bvxor tmp_351 #b1)))
        (let ((tmp_356 (bvand tmp_355 tmp_354)))
        (let ((tmp_357 (bvxor tmp_356 #b1)))
        (let ((tmp_358 (bvand tmp_357 tmp_353)))
        (let ((tmp_359 (bvand tmp_307 tmp_314)))
        (let ((tmp_360 (bvxor tmp_359 #b1)))
        (let ((tmp_361 (bvand tmp_360 tmp_358)))
        (let ((tmp_362 (bvxor tmp_361 #b1)))
        (let ((tmp_363 (bvxor tmp_358 #b1)))
        (let ((tmp_364 (bvand tmp_359 tmp_363)))
        (let ((tmp_365 (bvxor tmp_364 #b1)))
        (let ((tmp_366 (bvand tmp_365 tmp_362)))
        (let ((tmp_367 (bvand tmp_366 tmp_341)))
        (let ((tmp_368 (bvxor tmp_367 #b1)))
        (let ((tmp_369 (bvxor tmp_366 #b1)))
        (let ((tmp_370 (bvand tmp_369 tmp_340)))
        (let ((tmp_371 (bvxor tmp_370 #b1)))
        (let ((tmp_372 (bvand tmp_371 tmp_368)))
        (let ((tmp_373 (bvxor tmp_339 #b1)))
        (let ((tmp_374 (bvand tmp_366 tmp_373)))
        (let ((tmp_375 (bvxor tmp_374 #b1)))
        (let ((tmp_376 (bvand tmp_362 tmp_375)))
        (let ((tmp_377 (bvand tmp_366 tmp_334)))
        (let ((tmp_378 (bvand tmp_297 tmp_377)))
        (let ((tmp_379 (bvxor tmp_378 #b1)))
        (let ((tmp_380 (bvand tmp_379 tmp_376)))
        (let ((tmp_381 (bvxor tmp_380 #b1)))
        (let ((tmp_382 ((_ extract 11 11) tmp)))
        (let ((tmp_383 ((_ extract 11 11) tmp_0)))
        (let ((tmp_384 ((_ extract 11 11) tmp_1)))
        (let ((tmp_385 (bvand tmp_384 tmp_383)))
        (let ((tmp_386 (bvxor tmp_385 #b1)))
        (let ((tmp_387 (bvxor tmp_383 #b1)))
        (let ((tmp_388 (bvxor tmp_384 #b1)))
        (let ((tmp_389 (bvand tmp_388 tmp_387)))
        (let ((tmp_390 (bvxor tmp_389 #b1)))
        (let ((tmp_391 (bvand tmp_390 tmp_386)))
        (let ((tmp_392 (bvand tmp_391 tmp_382)))
        (let ((tmp_393 (bvxor tmp_392 #b1)))
        (let ((tmp_394 (bvxor tmp_382 #b1)))
        (let ((tmp_395 (bvxor tmp_391 #b1)))
        (let ((tmp_396 (bvand tmp_395 tmp_394)))
        (let ((tmp_397 (bvxor tmp_396 #b1)))
        (let ((tmp_398 (bvand tmp_397 tmp_393)))
        (let ((tmp_399 (bvand tmp_346 tmp_353)))
        (let ((tmp_400 (bvxor tmp_399 #b1)))
        (let ((tmp_401 (bvand tmp_400 tmp_398)))
        (let ((tmp_402 (bvxor tmp_401 #b1)))
        (let ((tmp_403 (bvxor tmp_398 #b1)))
        (let ((tmp_404 (bvand tmp_399 tmp_403)))
        (let ((tmp_405 (bvxor tmp_404 #b1)))
        (let ((tmp_406 (bvand tmp_405 tmp_402)))
        (let ((tmp_407 (bvand tmp_406 tmp_381)))
        (let ((tmp_408 (bvxor tmp_407 #b1)))
        (let ((tmp_409 (bvxor tmp_406 #b1)))
        (let ((tmp_410 (bvand tmp_409 tmp_380)))
        (let ((tmp_411 (bvxor tmp_410 #b1)))
        (let ((tmp_412 (bvand tmp_411 tmp_408)))
        (let ((tmp_413 (bvand tmp_366 tmp_406)))
        (let ((tmp_414 (bvand tmp_334 tmp_413)))
        (let ((tmp_415 (bvand tmp_414 tmp_297)))
        (let ((tmp_416 (bvxor tmp_415 #b1)))
        (let ((tmp_417 (bvand tmp_361 tmp_406)))
        (let ((tmp_418 (bvxor tmp_417 #b1)))
        (let ((tmp_419 (bvand tmp_402 tmp_418)))
        (let ((tmp_420 (bvand tmp_373 tmp_413)))
        (let ((tmp_421 (bvxor tmp_420 #b1)))
        (let ((tmp_422 (bvand tmp_421 tmp_419)))
        (let ((tmp_423 (bvand tmp_422 tmp_416)))
        (let ((tmp_424 (bvxor tmp_423 #b1)))
        (let ((tmp_425 ((_ extract 12 12) tmp)))
        (let ((tmp_426 ((_ extract 12 12) tmp_0)))
        (let ((tmp_427 ((_ extract 12 12) tmp_1)))
        (let ((tmp_428 (bvand tmp_427 tmp_426)))
        (let ((tmp_429 (bvxor tmp_428 #b1)))
        (let ((tmp_430 (bvxor tmp_426 #b1)))
        (let ((tmp_431 (bvxor tmp_427 #b1)))
        (let ((tmp_432 (bvand tmp_431 tmp_430)))
        (let ((tmp_433 (bvxor tmp_432 #b1)))
        (let ((tmp_434 (bvand tmp_433 tmp_429)))
        (let ((tmp_435 (bvand tmp_434 tmp_425)))
        (let ((tmp_436 (bvxor tmp_435 #b1)))
        (let ((tmp_437 (bvxor tmp_425 #b1)))
        (let ((tmp_438 (bvxor tmp_434 #b1)))
        (let ((tmp_439 (bvand tmp_438 tmp_437)))
        (let ((tmp_440 (bvxor tmp_439 #b1)))
        (let ((tmp_441 (bvand tmp_440 tmp_436)))
        (let ((tmp_442 (bvand tmp_386 tmp_393)))
        (let ((tmp_443 (bvxor tmp_442 #b1)))
        (let ((tmp_444 (bvand tmp_443 tmp_441)))
        (let ((tmp_445 (bvxor tmp_444 #b1)))
        (let ((tmp_446 (bvxor tmp_441 #b1)))
        (let ((tmp_447 (bvand tmp_442 tmp_446)))
        (let ((tmp_448 (bvxor tmp_447 #b1)))
        (let ((tmp_449 (bvand tmp_448 tmp_445)))
        (let ((tmp_450 (bvand tmp_449 tmp_424)))
        (let ((tmp_451 (bvxor tmp_450 #b1)))
        (let ((tmp_452 (bvxor tmp_449 #b1)))
        (let ((tmp_453 (bvand tmp_452 tmp_423)))
        (let ((tmp_454 (bvxor tmp_453 #b1)))
        (let ((tmp_455 (bvand tmp_454 tmp_451)))
        (let ((tmp_456 (bvxor tmp_422 #b1)))
        (let ((tmp_457 (bvand tmp_449 tmp_456)))
        (let ((tmp_458 (bvxor tmp_457 #b1)))
        (let ((tmp_459 (bvand tmp_445 tmp_458)))
        (let ((tmp_460 (bvand tmp_449 tmp_414)))
        (let ((tmp_461 (bvand tmp_297 tmp_460)))
        (let ((tmp_462 (bvxor tmp_461 #b1)))
        (let ((tmp_463 (bvand tmp_462 tmp_459)))
        (let ((tmp_464 (bvxor tmp_463 #b1)))
        (let ((tmp_465 ((_ extract 13 13) tmp)))
        (let ((tmp_466 ((_ extract 13 13) tmp_0)))
        (let ((tmp_467 ((_ extract 13 13) tmp_1)))
        (let ((tmp_468 (bvand tmp_467 tmp_466)))
        (let ((tmp_469 (bvxor tmp_468 #b1)))
        (let ((tmp_470 (bvxor tmp_466 #b1)))
        (let ((tmp_471 (bvxor tmp_467 #b1)))
        (let ((tmp_472 (bvand tmp_471 tmp_470)))
        (let ((tmp_473 (bvxor tmp_472 #b1)))
        (let ((tmp_474 (bvand tmp_473 tmp_469)))
        (let ((tmp_475 (bvand tmp_474 tmp_465)))
        (let ((tmp_476 (bvxor tmp_475 #b1)))
        (let ((tmp_477 (bvxor tmp_465 #b1)))
        (let ((tmp_478 (bvxor tmp_474 #b1)))
        (let ((tmp_479 (bvand tmp_478 tmp_477)))
        (let ((tmp_480 (bvxor tmp_479 #b1)))
        (let ((tmp_481 (bvand tmp_480 tmp_476)))
        (let ((tmp_482 (bvand tmp_429 tmp_436)))
        (let ((tmp_483 (bvxor tmp_482 #b1)))
        (let ((tmp_484 (bvand tmp_483 tmp_481)))
        (let ((tmp_485 (bvxor tmp_484 #b1)))
        (let ((tmp_486 (bvxor tmp_481 #b1)))
        (let ((tmp_487 (bvand tmp_482 tmp_486)))
        (let ((tmp_488 (bvxor tmp_487 #b1)))
        (let ((tmp_489 (bvand tmp_488 tmp_485)))
        (let ((tmp_490 (bvand tmp_489 tmp_464)))
        (let ((tmp_491 (bvxor tmp_490 #b1)))
        (let ((tmp_492 (bvxor tmp_489 #b1)))
        (let ((tmp_493 (bvand tmp_492 tmp_463)))
        (let ((tmp_494 (bvxor tmp_493 #b1)))
        (let ((tmp_495 (bvand tmp_494 tmp_491)))
        (let ((tmp_496 (bvand tmp_449 tmp_489)))
        (let ((tmp_497 (bvand tmp_496 tmp_456)))
        (let ((tmp_498 (bvxor tmp_497 #b1)))
        (let ((tmp_499 (bvand tmp_444 tmp_489)))
        (let ((tmp_500 (bvxor tmp_499 #b1)))
        (let ((tmp_501 (bvand tmp_485 tmp_500)))
        (let ((tmp_502 (bvand tmp_501 tmp_498)))
        (let ((tmp_503 (bvand tmp_496 tmp_414)))
        (let ((tmp_504 (bvand tmp_297 tmp_503)))
        (let ((tmp_505 (bvxor tmp_504 #b1)))
        (let ((tmp_506 (bvand tmp_505 tmp_502)))
        (let ((tmp_507 (bvxor tmp_506 #b1)))
        (let ((tmp_508 ((_ extract 14 14) tmp)))
        (let ((tmp_509 ((_ extract 14 14) tmp_0)))
        (let ((tmp_510 ((_ extract 14 14) tmp_1)))
        (let ((tmp_511 (bvand tmp_510 tmp_509)))
        (let ((tmp_512 (bvxor tmp_511 #b1)))
        (let ((tmp_513 (bvxor tmp_509 #b1)))
        (let ((tmp_514 (bvxor tmp_510 #b1)))
        (let ((tmp_515 (bvand tmp_514 tmp_513)))
        (let ((tmp_516 (bvxor tmp_515 #b1)))
        (let ((tmp_517 (bvand tmp_516 tmp_512)))
        (let ((tmp_518 (bvand tmp_517 tmp_508)))
        (let ((tmp_519 (bvxor tmp_518 #b1)))
        (let ((tmp_520 (bvxor tmp_508 #b1)))
        (let ((tmp_521 (bvxor tmp_517 #b1)))
        (let ((tmp_522 (bvand tmp_521 tmp_520)))
        (let ((tmp_523 (bvxor tmp_522 #b1)))
        (let ((tmp_524 (bvand tmp_523 tmp_519)))
        (let ((tmp_525 (bvand tmp_469 tmp_476)))
        (let ((tmp_526 (bvxor tmp_525 #b1)))
        (let ((tmp_527 (bvand tmp_526 tmp_524)))
        (let ((tmp_528 (bvxor tmp_527 #b1)))
        (let ((tmp_529 (bvxor tmp_524 #b1)))
        (let ((tmp_530 (bvand tmp_525 tmp_529)))
        (let ((tmp_531 (bvxor tmp_530 #b1)))
        (let ((tmp_532 (bvand tmp_531 tmp_528)))
        (let ((tmp_533 (bvand tmp_532 tmp_507)))
        (let ((tmp_534 (bvxor tmp_533 #b1)))
        (let ((tmp_535 (bvxor tmp_532 #b1)))
        (let ((tmp_536 (bvand tmp_535 tmp_506)))
        (let ((tmp_537 (bvxor tmp_536 #b1)))
        (let ((tmp_538 (bvand tmp_537 tmp_534)))
        (let ((tmp_539 (bvxor tmp_501 #b1)))
        (let ((tmp_540 (bvand tmp_532 tmp_539)))
        (let ((tmp_541 (bvxor tmp_540 #b1)))
        (let ((tmp_542 (bvand tmp_528 tmp_541)))
        (let ((tmp_543 (bvand tmp_532 tmp_496)))
        (let ((tmp_544 (bvand tmp_456 tmp_543)))
        (let ((tmp_545 (bvxor tmp_544 #b1)))
        (let ((tmp_546 (bvand tmp_545 tmp_542)))
        (let ((tmp_547 (bvand tmp_414 tmp_543)))
        (let ((tmp_548 (bvand tmp_297 tmp_547)))
        (let ((tmp_549 (bvxor tmp_548 #b1)))
        (let ((tmp_550 (bvand tmp_549 tmp_546)))
        (let ((tmp_551 (bvxor tmp_550 #b1)))
        (let ((tmp_552 ((_ extract 15 15) tmp)))
        (let ((tmp_553 ((_ extract 15 15) tmp_0)))
        (let ((tmp_554 ((_ extract 15 15) tmp_1)))
        (let ((tmp_555 (bvand tmp_554 tmp_553)))
        (let ((tmp_556 (bvxor tmp_555 #b1)))
        (let ((tmp_557 (bvxor tmp_553 #b1)))
        (let ((tmp_558 (bvxor tmp_554 #b1)))
        (let ((tmp_559 (bvand tmp_558 tmp_557)))
        (let ((tmp_560 (bvxor tmp_559 #b1)))
        (let ((tmp_561 (bvand tmp_560 tmp_556)))
        (let ((tmp_562 (bvand tmp_561 tmp_552)))
        (let ((tmp_563 (bvxor tmp_562 #b1)))
        (let ((tmp_564 (bvxor tmp_552 #b1)))
        (let ((tmp_565 (bvxor tmp_561 #b1)))
        (let ((tmp_566 (bvand tmp_565 tmp_564)))
        (let ((tmp_567 (bvxor tmp_566 #b1)))
        (let ((tmp_568 (bvand tmp_567 tmp_563)))
        (let ((tmp_569 (bvand tmp_512 tmp_519)))
        (let ((tmp_570 (bvxor tmp_569 #b1)))
        (let ((tmp_571 (bvand tmp_570 tmp_568)))
        (let ((tmp_572 (bvxor tmp_571 #b1)))
        (let ((tmp_573 (bvxor tmp_568 #b1)))
        (let ((tmp_574 (bvand tmp_569 tmp_573)))
        (let ((tmp_575 (bvxor tmp_574 #b1)))
        (let ((tmp_576 (bvand tmp_575 tmp_572)))
        (let ((tmp_577 (bvand tmp_576 tmp_551)))
        (let ((tmp_578 (bvxor tmp_577 #b1)))
        (let ((tmp_579 (bvxor tmp_576 #b1)))
        (let ((tmp_580 (bvand tmp_579 tmp_550)))
        (let ((tmp_581 (bvxor tmp_580 #b1)))
        (let ((tmp_582 (bvand tmp_581 tmp_578)))
        (let ((tmp_583 (bvand tmp_527 tmp_576)))
        (let ((tmp_584 (bvxor tmp_583 #b1)))
        (let ((tmp_585 (bvand tmp_572 tmp_584)))
        (let ((tmp_586 (bvand tmp_532 tmp_576)))
        (let ((tmp_587 (bvand tmp_539 tmp_586)))
        (let ((tmp_588 (bvxor tmp_587 #b1)))
        (let ((tmp_589 (bvand tmp_588 tmp_585)))
        (let ((tmp_590 (bvand tmp_496 tmp_586)))
        (let ((tmp_591 (bvand tmp_456 tmp_590)))
        (let ((tmp_592 (bvxor tmp_591 #b1)))
        (let ((tmp_593 (bvand tmp_592 tmp_589)))
        (let ((tmp_594 (bvand tmp_414 tmp_590)))
        (let ((tmp_595 (bvand tmp_297 tmp_594)))
        (let ((tmp_596 (bvxor tmp_595 #b1)))
        (let ((tmp_597 (bvand tmp_596 tmp_593)))
        (let ((tmp_598 (bvxor tmp_597 #b1)))
        (let ((tmp_599 (bvand tmp_556 tmp_563)))
        (let ((tmp_600 (bvxor tmp_599 #b1)))
        (let ((tmp_601 (bvand tmp_600 tmp_598)))
        (let ((tmp_602 (bvxor tmp_601 #b1)))
        (let ((tmp_603 (bvand tmp_599 tmp_597)))
        (let ((tmp_604 (bvxor tmp_603 #b1)))
        (let ((tmp_605 (bvand tmp_604 tmp_602)))
        (let ((tmp_606 (concat tmp_605 tmp_582)))
        (let ((tmp_607 (concat tmp_606 tmp_538)))
        (let ((tmp_608 (concat tmp_607 tmp_495)))
        (let ((tmp_609 (concat tmp_608 tmp_455)))
        (let ((tmp_610 (concat tmp_609 tmp_412)))
        (let ((tmp_611 (concat tmp_610 tmp_372)))
        (let ((tmp_612 (concat tmp_611 tmp_333)))
        (let ((tmp_613 (concat tmp_612 tmp_300)))
        (let ((tmp_614 (concat tmp_613 tmp_257)))
        (let ((tmp_615 (concat tmp_614 tmp_217)))
        (let ((tmp_616 (concat tmp_615 tmp_178)))
        (let ((tmp_617 (concat tmp_616 tmp_145)))
        (let ((tmp_618 (concat tmp_617 tmp_107)))
        (let ((tmp_619 (concat tmp_618 tmp_74)))
        (let ((tmp_620 (concat tmp_619 tmp_43)))
        (let ((tmp_621 (concat tmp_620 tmp_18)))
        (let ((tmp_622 (concat #b0 tmp_1)))
        (let ((tmp_623 (concat #b0 tmp_0)))
        (let ((tmp_624 (concat #b0 tmp)))
        (let ((tmp_625 (bvadd tmp_624 tmp_623)))
        (let ((tmp_626 (bvadd tmp_625 tmp_622)))
        (let ((tmp_627 (distinct tmp_626 tmp_621)))
        tmp_627)))))))))))))))))))))))))))))))))))))))))))))))))))))))))))))))))))))))))))))))))))))))))))))))))))))))))))))))))))))))))))))))))))))))))))))))))))))))))))))))))))))))))))))))))))))))))))))))))))))))))))))))))))))))))))))))))))))))))))))))))))))))))))))))))))))))))))))))))))))))))))))))))))))))))))))))))))))))))))))))))))))))))))))))))))))))))))))))))))))))))))))))))))))))))))))))))))))))))))))))))))))))))))))))))))))))))))))))))))))))))))))))))))))))))))))))))))))))))))))))))))))))))))))))))))))))))))))))))))))))))))))))))))))))))))))))))))))))))))))))))))))))))))))))))))))))))))))))))))))))))))))))))))))))))))))))))))
(check-sat)
